Version identifier: 22.1.0.0 | 2022-03-09 | 1a383f8ce
CPXPARAM_Read_DataCheck                          1
Tried aggregator 2 times.
MIP Presolve eliminated 351096 rows and 502 columns.
MIP Presolve modified 155600 coefficients.
Aggregator did 200 substitutions.
Reduced MIP has 695299 rows, 60100 columns, and 2732697 nonzeros.
Reduced MIP has 60100 binaries, 0 generals, 0 SOSs, and 0 indicators.
Presolve time = 8.44 sec. (3829.77 ticks)
Probing fixed 2 vars, tightened 0 bounds.
Probing time = 6.56 sec. (2373.14 ticks)
Tried aggregator 1 time.
Detecting symmetries...
MIP Presolve eliminated 101 rows and 101 columns.
Reduced MIP has 695198 rows, 59999 columns, and 2727499 nonzeros.
Reduced MIP has 59999 binaries, 0 generals, 0 SOSs, and 0 indicators.
Presolve time = 5.19 sec. (2706.96 ticks)
Probing time = 0.72 sec. (217.53 ticks)
Clique table members: 1071663.
MIP emphasis: balance optimality and feasibility.
MIP search method: dynamic search.
Parallel mode: deterministic, using up to 4 threads.
Root relaxation solution time = 31.73 sec. (13134.61 ticks)

        Nodes                                         Cuts/
   Node  Left     Objective  IInf  Best Integer    Best Bound    ItCnt     Gap

      0     0        3.0000   483                      3.0000    60860         
      0     0        3.0000   276                   Cuts: 534    61546         
      0     0        3.0000   360                   Cuts: 433    62641         
      0     0        3.0000   208                 Cliques: 49    62944         
      0     0        3.0000   332                   Cuts: 492    63589         
Heuristic still looking.
Detecting symmetries...
      0     2        3.0000   201                      3.0000    63589         
Elapsed time = 237.46 sec. (88036.41 ticks, tree = 0.02 MB, solutions = 0)
      1     3        3.0000   189                      3.0000    63952         
      2     4        3.0000   184                      3.0000    64254         
      4     3        3.0000   275                      3.0000    63709         
      5     4        3.0000   175                      3.0000    64095         
      6     5        3.0000   216                      3.0000    64808         
      7     6        3.0000   190                      3.0000    65026         
      8     7        3.0000   203                      3.0000    68491         
      9     8        3.0000   187                      3.0000    68948         
     10     5        3.0000   294                      3.0000    65029         
     11    10        3.0000   312                      3.0000    73610         
Elapsed time = 256.92 sec. (94414.98 ticks, tree = 0.31 MB, solutions = 0)
     14     9        3.0225  2153                      3.0000    77856         
     16    15        3.0000   216                      3.0000    99244         
     18    16        3.0000   173                      3.0000   103967         
     21    15        3.0417  2254                      3.0000   102530         
     22    16        3.0000   279                      3.0000   108540         
     25    18        3.0000   269                      3.0000   112463         
     34    13        3.0675  2268                      3.0000   112953         
     36    19        5.0000   660                      3.0000   114286         
     43    16    infeasible                            3.0000   116241         
     45    25        5.0000   676                      3.0000   116860         
Elapsed time = 334.53 sec. (109434.58 ticks, tree = 38.62 MB, solutions = 0)
     50    22        5.0000   573                      3.0000   118379         
     58    29        5.0000   656                      3.0000   116880         
     68    40        5.0000   567                      3.0000   118990         
     78    45        5.0000   530                      3.0000   119131         
     89    54    infeasible                            3.0000   119803         
     99    59        5.0000   519                      3.0000   119533         
    110    51    infeasible                            3.0000   120215         
    114    63    infeasible                            3.0000   121178         
    117    63        3.0000   312                      3.0000   121098         
    123    62        3.0000   317                      3.0000   122795         
Elapsed time = 411.86 sec. (121407.54 ticks, tree = 25.54 MB, solutions = 0)
    124    63        3.0000   282                      3.0000   123893         
    128    62    infeasible                            3.0000   124849         
    132    58    infeasible                            3.0000   125393         
    139    69        3.0000   204                      3.0000   128131         
    143    66    infeasible                            3.0000   129755         
    153    66        5.0000   350                      3.0000   128500         
    158    71        5.0000   372                      3.0000   128897         
    163    75    infeasible                            3.0000   130751         
    168    75    infeasible                            3.0000   132188         
    171    74        3.0000   359                      3.0000   132549         
Elapsed time = 457.62 sec. (132665.11 ticks, tree = 20.92 MB, solutions = 0)
    175    73    infeasible                            3.0000   133368         
    181    73        3.0000   327                      3.0000   134130         
    186    76        3.0000   280                      3.0000   135768         
    192    79    infeasible                            3.0000   137159         
    200    85        3.0001   931                      3.0000   139182         
    209    70    infeasible                            3.0000   137733         
    213    89        5.0000   847                      3.0000   141063         
    221    87        5.0000   816                      3.0000   142443         
    227    91        5.0000   803                      3.0000   142496         
    236    99        5.0000   840                      3.0000   142953         
Elapsed time = 522.54 sec. (146279.18 ticks, tree = 29.05 MB, solutions = 0)
    241    96    infeasible                            3.0000   143457         
    244    73        5.0000   906                      3.0000   144165         
    248    94        3.0564  2284                      3.0000   145040         
    253    91    infeasible                            3.0000   148349         
    259    99        5.0000   832                      3.0000   150983         
    266    87        5.0000   580                      3.0000   152865         
    276   104        5.0000   805                      3.0000   152237         
    282   104        3.0000   363                      3.0000   153243         
    288   100        3.0000   321                      3.0000   155187         
    293   100        5.0000   797                      3.0000   160285         
Elapsed time = 580.19 sec. (159440.05 ticks, tree = 23.17 MB, solutions = 0)
    303    93    infeasible                            3.0000   155952         
    310   106        3.0000   391                      3.0000   161144         
    312   103        3.0000   416                      3.0000   163469         
    317   106        3.0000   394                      3.0000   163923         
    324    97        5.0000   915                      3.0000   163903         
    335   118    infeasible                            3.0000   164686         
    338   118    infeasible                            3.0000   165109         
    346   101    infeasible                            3.0000   170045         
    352   125        3.0000   327                      3.0000   169373         
    362   129    infeasible                            3.0000   169752         
Elapsed time = 643.16 sec. (172932.55 ticks, tree = 20.39 MB, solutions = 0)
    370   113        3.0000   363                      3.0000   173042         
    384   106    infeasible                            3.0000   173386         
    390   107    infeasible                            3.0000   174324         
    399   100    infeasible                            3.0000   175486         
    406    97    infeasible                            3.0000   175192         
    412    96    infeasible                            3.0000   175804         
    419    91    infeasible                            3.0000   176337         
    428    89        5.0000   785                      3.0000   178028         
    440    92        5.0000   807                      3.0000   178300         
    455   101        5.0000   810                      3.0000   178652         
Elapsed time = 695.64 sec. (184306.43 ticks, tree = 17.96 MB, solutions = 0)
    460    59        5.0000   589                      3.0000   182108         
    468    61    infeasible                            3.0000   182399         
    480    57    infeasible                            3.0000   182826         
    490    87        5.0000   773                      3.0000   182732         
    499    71    infeasible                            3.0000   184669         
    505    68    infeasible                            3.0000   185253         
    516    62    infeasible                            3.0000   185695         
    522    79        5.0000   684                      3.0000   186990         
    531    82    infeasible                            3.0000   187230         
    544    77    infeasible                            3.0000   187884         
Elapsed time = 755.92 sec. (195645.19 ticks, tree = 5.69 MB, solutions = 0)
    555    72    infeasible                            3.0000   188513         
    560    65        5.0000   648                      3.0000   192025         
    571    63        5.0000   539                      3.0000   190772         
    580    73        5.0000   647                      3.0000   192653         
    592    76        5.0000   639                      3.0000   192934         
    598    55        5.0000   824                      3.0000   194040         
    611    75    infeasible                            3.0000   195963         
    623    68    infeasible                            3.0000   196231         
    632    53    infeasible                            3.0000   195135         
    672    56        5.0000   590                      3.0000   199593         
Elapsed time = 828.77 sec. (208778.84 ticks, tree = 3.54 MB, solutions = 0)
    717    43    infeasible                            3.0000   201139         
    735    22    infeasible                            3.0000   204812         
    774    12    infeasible                            3.0000   208430         
    777    10        3.0000   200                      3.0000    81100         
    779     4        3.0241  2144                      3.0000   222259         
    799    13        5.0000   762                      3.0000   224650         
    826    11        5.0000   763                      3.0000   226501         
    864    30        5.0000   714                      3.0000   227412         
    923    40        5.0000   828                      3.0000   239112         
    974    38        5.0000   831                      3.0000   239791         
Elapsed time = 2514.62 sec. (785940.77 ticks, tree = 2.46 MB, solutions = 0)
   1017    13        5.0000   834                      3.0000   251628         
   1034    12        3.1124  1710                      3.0000   138705         
   1035     3        3.0320  2080                      3.0000   323255         
   1039     4        5.0000   808                      3.0000   378327         

Clique cuts applied:  456
Cover cuts applied:  7

Root node processing (before b&c):
  Real time             =  236.08 sec. (86976.83 ticks)
Parallel b&c, 4 threads:
  Real time             = 9203.57 sec. (1909024.06 ticks)
  Sync time (average)   = 6235.20 sec.
  Wait time (average)   =    0.00 sec.
                          ------------
Total (root+branch&cut) = 9439.66 sec. (1996000.89 ticks)
WARNING: Loading a SolverResults object with a warning status into
model.name="unknown";
    - termination condition: infeasible
    - message from solver: <undefined>
